param bias_1 :=
1 3.6065469e-03  
2 6.0682643e-05  
3 2.1223542e-03  
4 6.6643325e-04
5 1.8507050e-03 
6 -2.3807411e-03  
7 3.1693606e-03 
8 -1.0411359e-06
9 2.4562560e-03  
10 7.8606866e-03  
11 2.3111200e-03 
12 -3.6115333e-04
13 4.6180510e-03  
14 1.3366096e-03 
15 -1.2702525e-04  
16 2.1733881e-03
;
